123
0 12 64 54 121 19 29 53 71 94 
3 86 42 62 45 101 78 74 10 66 
82 36 31 47 50 119 24 9 58 26 
30 11 84 102 105 2 79 41 4 17 
68 13 27 76 49 55 44 21 89 107 
16 113 69 57 61 1 34 63 14 52 
40 5 46 7 96 28 72 80 106 92 
18 23 110 83 118 111 59 35 25 56 
91 116 75 95 39 103 98 97 37 93 
120 122 15 48 108 70 88 51 8 115 
114 43 6 99 100 81 90 38 20 77 
104 73 85 32 117 112 67 87 60 22 
109 65 33 
